74,98
87,83
63,77
80,44
98,91
78,65
46,63
74,79
73,32
49,76
32,67
9,91
34,100
24,56
77,64
28,24
49,93
33,8
92,11
19,81
51,20
64,97
64,31
31,56
59,49
93,4
2,77
90,78
34,17
34,80
0,61
50,11
6,52
25,34
20,0
95,29
82,11
83,46
15,53
99,46
